57 57 24 57 57 57 57 57 57 57 57 57 57 24 57 57 24 57 24 57 24 24 24 24 57 57 57 24 57 57 57 24 57 24 24 57 24 24 57 24 24 57 57 57 57 57 57 24 57 57 24 24 24 24 24 57 24 24 24 57 24 24 24 24 24 57 24 57 24 24 57 24 57 57 24 57 57 24 24 24 24 57 57 24 24 24 24 24 57 57 24 24 24 57 57 57 57 24 24 24 